! M062X 6-311G(d,p) TightSCF CPCM(THF)

%tddft
  nroots 10            
end

* xyz 0 1
   N       -1.92612        2.37327        4.62138
   N       -1.35433       -0.31369        4.83617
   C       -2.91762        1.50300        4.91396
   C       -2.62988        0.10621        4.97566
   C       -0.69240        1.94683        4.43178
   C       -0.38192        0.54825        4.60961
   C       -4.24592        1.99488        5.11786
   C       -3.66633       -0.85620        5.21906
   C       -5.22458        1.03173        5.35748
   C       -4.94581       -0.33489        5.41282
   H       -6.25291        1.33888        5.49837
   H       -5.76746       -1.00590        5.62660
   C        0.29770        2.97393        4.00758
   C        0.30369        4.22772        4.63378
   C        1.18478        2.74057        2.94840
   C        1.19205        5.21734        4.22431
   H       -0.39126        4.41573        5.44293
   C        2.05929        3.73833        2.52898
   H        1.18272        1.78264        2.44253
   C        2.07151        4.97604        3.16993
   H        1.19499        6.17863        4.72615
   H        2.73161        3.54801        1.69991
   H        2.75996        5.74915        2.84713
   C        0.99718       -0.01148        4.58570
   C        2.05498        0.61509        5.25812
   C        1.23487       -1.23063        3.93613
   C        3.32083        0.03735        5.27456
   H        1.88703        1.54853        5.78148
   C        2.50556       -1.79743        3.93996
   H        0.41521       -1.72729        3.43195
   C        3.55237       -1.16563        4.60974
   H        4.12668        0.52779        5.80909
   H        2.67676       -2.73556        3.42378
   H        4.54155       -1.60994        4.61713
   C       -4.59498        3.41156        5.07727
   C       -5.80880        3.96278        5.48277
   S       -3.55619        4.66300        4.45184
   C       -5.91807        5.34269        5.28444
   H       -6.59960        3.37684        5.92999
   C       -4.77873        5.90063        4.71649
   H       -6.79378        5.91546        5.55262
   C       -3.43806       -2.29511        5.26872
   C       -4.41534       -3.27558        5.27762
   S       -1.85350       -3.04982        5.37530
   C       -3.92131       -4.58941        5.38935
   H       -5.47184       -3.05656        5.20101
   C       -2.54575       -4.65364        5.47016
   H       -4.56084       -5.46128        5.43197
   C       -1.69928       -5.84163        5.58508
   C       -2.15653       -7.09763        5.14787
   C       -1.37381       -8.23555        5.26347
   H       -3.14029       -7.18396        4.70121
   C       -0.07957       -8.16571        5.80474
   H       -1.75950       -9.18874        4.92343
   N        0.72710       -9.32231        5.91183
   C        0.68403      -10.32656        4.90303
   C        0.69452       -9.97640        3.54589
   C        0.64889      -10.96321        2.56597
   H        0.73732       -8.93064        3.26557
   C        0.61056      -12.31138        2.91909
   H        0.65795      -10.67521        1.52032
   H        0.58201      -13.07770        2.15304
   C        0.61056      -12.66307        4.26801
   H        0.57548      -13.70777        4.55737
   C        0.63873      -11.68233        5.25476
   H        0.62806      -11.96069        6.30183
   C       -0.40638       -5.78425        6.13386
   H       -0.01666       -4.83811        6.49265
   C        0.39083       -6.91449        6.23361
   H        1.38529       -6.83338        6.65465
   C        1.59445       -9.49357        7.02876
   C        2.91064       -9.93650        6.84184
   C        1.14320       -9.23001        8.32911
   C        3.75227      -10.11703        7.93522
   H        3.26666      -10.13907        5.83875
   C        1.99692       -9.39700        9.41515
   H        0.12424       -8.89481        8.48203
   C        3.30378       -9.84469        9.22670
   H        4.76819      -10.46078        7.77369
   H        1.63236       -9.18915       10.41527
   H        3.96381       -9.98045       10.07575
   C       -5.20568        8.38084        4.44228
   C       -6.53323        8.39681        4.95643
   N       -7.60810        8.36794        5.38169
   C       -4.68354        9.69528        4.00170
   O       -5.30014       10.73112        4.05097
   O       -3.41187        9.62653        3.52406
   H       -3.17895       10.52957        3.26575
   C       -4.45300        7.24125        4.35371
   H       -3.46098        7.38774        3.93888
*

