! wB97X 6-311G(d,p) TightSCF CPCM(THF)

%tddft
  nroots 10              
end

* xyz 0 1
   N       -1.90799        2.40480        4.72204
   N       -1.34517       -0.28641        4.90561
   C       -2.92291        1.51690        4.80893
   C       -2.63140        0.11985        4.85341
   C       -0.65455        1.99376        4.71807
   C       -0.35979        0.59043        4.88065
   C       -4.27237        1.99242        4.81461
   C       -3.68201       -0.85869        4.87842
   C       -5.26518        1.01407        4.84736
   C       -4.98268       -0.35188        4.88459
   H       -6.30629        1.31013        4.83224
   H       -5.81976       -1.03622        4.93053
   C        0.37801        3.04531        4.50781
   C        0.26327        4.26956        5.18024
   C        1.42994        2.86651        3.59979
   C        1.19229        5.28312        4.96611
   H       -0.55822        4.41590        5.87076
   C        2.34700        3.88844        3.37402
   H        1.52484        1.93263        3.05904
   C        2.23618        5.09602        4.06129
   H        1.09835        6.22079        5.50265
   H        3.14887        3.74087        2.65925
   H        2.95693        5.88788        3.88983
   C        1.01212        0.04003        5.05708
   C        1.93655        0.63967        5.92282
   C        1.37075       -1.14336        4.39730
   C        3.19189        0.07168        6.11761
   H        1.67069        1.54455        6.45570
   C        2.63277       -1.69989        4.58099
   H        0.65167       -1.62080        3.74331
   C        3.54714       -1.09442        5.44178
   H        3.89245        0.54106        6.79922
   H        2.89984       -2.60998        4.05532
   H        4.52911       -1.53066        5.58841
   C       -4.62761        3.40731        4.78084
   C       -5.89716        3.93400        5.01180
   S       -3.51851        4.69046        4.38106
   C       -5.99079        5.32032        4.85630
   H       -6.74095        3.32449        5.30380
   C       -4.78312        5.90915        4.49935
   H       -6.90480        5.87616        5.00659
   C       -3.44843       -2.29581        4.89383
   C       -4.40160       -3.27814        4.68503
   S       -1.89683       -3.05407        5.23279
   C       -3.92161       -4.59481        4.81639
   H       -5.43111       -3.05681        4.43725
   C       -2.57940       -4.66217        5.13162
   H       -4.55010       -5.46892        4.70717
   C       -1.75539       -5.85180        5.33515
   C       -2.10754       -7.08459        4.75972
   C       -1.34864       -8.22707        4.95006
   H       -2.98801       -7.14783        4.13013
   C       -0.16706       -8.20114        5.72677
   H       -1.67285       -9.14495        4.47940
   N        0.61190       -9.33077        5.89629
   C       -0.58828       -5.83092        6.11661
   H       -0.28796       -4.91004        6.60473
   C        0.18482       -6.96376        6.31263
   H        1.06332       -6.88506        6.93801
   C       -5.19286        8.39622        4.26125
   C       -6.58540        8.38303        4.55703
   N       -7.71395        8.33049        4.80359
   C       -4.62373        9.73037        3.96292
   O       -5.25238       10.76035        3.95560
   O       -3.29151        9.68913        3.69029
   H       -3.03267       10.60359        3.50833
   C       -4.42138        7.26531        4.24819
   H       -3.37801        7.43528        4.00290
   C        0.12351      -10.62122        5.43768
   H       -0.80235      -10.92860        5.94504
   H       -0.06728      -10.61196        4.35986
   H        0.88379      -11.37747        5.62897
   C        1.72866       -9.30557        6.82685
   H        2.45257       -8.53144        6.55340
   H        1.41274       -9.12553        7.86469
   H        2.24403      -10.26447        6.78916
*

